c Reduced graph for mug88_25 generated by Cyril Grelier
p edge 88 146
e 1 3
e 1 7
e 1 29
e 1 33
e 2 5
e 2 16
e 2 17
e 2 77
e 3 4
e 3 78
e 3 79
e 4 10
e 4 37
e 4 80
e 5 29
e 5 31
e 5 32
e 6 29
e 6 30
e 6 34
e 6 35
e 7 9
e 7 63
e 7 64
e 8 9
e 8 12
e 8 59
e 8 62
e 9 41
e 9 42
e 10 11
e 10 45
e 10 46
e 11 14
e 11 36
e 11 54
e 12 25
e 12 55
e 12 65
e 13 14
e 13 36
e 13 60
e 13 61
e 14 75
e 14 76
e 15 16
e 15 18
e 15 38
e 15 56
e 16 19
e 16 40
e 17 39
e 17 47
e 17 48
e 18 21
e 18 38
e 18 44
e 19 24
e 19 40
e 19 50
e 20 41
e 20 42
e 20 67
e 20 68
e 21 43
e 21 84
e 21 85
e 22 45
e 22 46
e 22 66
e 22 72
e 23 47
e 23 48
e 23 57
e 23 58
e 24 50
e 24 52
e 24 53
e 25 54
e 25 70
e 25 71
e 26 65
e 26 66
e 26 73
e 26 74
e 27 67
e 27 68
e 27 81
e 27 82
e 28 36
e 28 75
e 28 87
e 28 88
e 30 31
e 30 32
e 31 32
e 33 34
e 33 35
e 34 35
e 37 38
e 37 43
e 39 40
e 39 49
e 41 42
e 43 44
e 44 83
e 45 46
e 47 48
e 49 50
e 49 51
e 51 52
e 51 53
e 52 53
e 54 55
e 55 69
e 56 57
e 56 58
e 57 58
e 59 60
e 59 61
e 60 61
e 62 63
e 62 64
e 63 64
e 65 66
e 67 68
e 69 70
e 69 71
e 70 71
e 72 73
e 72 74
e 73 74
e 75 76
e 76 86
e 77 78
e 77 79
e 78 79
e 80 81
e 80 82
e 81 82
e 83 84
e 83 85
e 84 85
e 86 87
e 86 88
e 87 88
